============================[ Problem Statistics ]=============================|                                                                             ||  Number of variables:          4242                                         ||  Number of clauses:           10356                                         ||  Parse time:                   0.74 s                                       ||                                                                             |============================[ Search Statistics ]==============================| Conflicts |          ORIGINAL         |          LEARNT          | Progress ||           |    Vars  Clauses Literals |    Limit  Clauses Lit/Cl |          |===============================================================================|       100 |    1591     6561  1185952 |     2405      100     53 | 62.501 % ||       250 |    1591     6561  1185952 |     2646      250     75 | 62.495 % |===============================================================================restarts              : 4conflicts             : 403            (360 /sec)decisions             : 766            (0.00 % random) (684 /sec)propagations          : 13649          (12187 /sec)conflict literals     : 33472          (94.54 % deleted)CPU time              : 1.12 sSATISFIABLE